N = 448;
M = 565;
Edge_Start = [1, 1, 2, 3, 3, 4, 5, 5, 6, 8, 9, 9, 10, 11, 11, 12, 13, 13, 15, 15, 16, 17, 18, 19, 19, 20, 21, 21, 22, 23, 23, 24, 25, 25, 26, 27, 27, 28, 29, 30, 31, 31, 33, 33, 34, 35, 37, 37, 38, 39, 39, 40, 41, 41, 42, 43, 43, 44, 45, 46, 47, 47, 48, 49, 49, 50, 51, 51, 52, 53, 53, 54, 55, 55, 56, 57, 57, 58, 59, 60, 60, 61, 62, 62, 63, 64, 65, 66, 67, 68, 69, 70, 70, 71, 72, 72, 74, 74, 75, 76, 76, 77, 78, 79, 81, 82, 82, 83, 84, 85, 86, 86, 87, 88, 90, 91, 91, 92, 93, 93, 95, 95, 96, 97, 98, 99, 101, 101, 102, 103, 103, 104, 105, 105, 106, 107, 107, 108, 109, 109, 110, 111, 112, 113, 113, 114, 115, 115, 116, 117, 117, 118, 119, 120, 120, 121, 122, 122, 123, 124, 124, 125, 126, 126, 127, 128, 128, 130, 131, 132, 134, 134, 135, 136, 136, 138, 138, 139, 140, 140, 142, 142, 143, 144, 145, 146, 146, 147, 148, 148, 150, 151, 151, 152, 153, 153, 154, 155, 155, 156, 157, 157, 158, 159, 159, 160, 161, 161, 162, 163, 163, 164, 165, 165, 166, 167, 167, 168, 170, 171, 172, 173, 173, 174, 175, 175, 176, 177, 177, 178, 179, 180, 181, 182, 182, 183, 184, 185, 186, 186, 187, 188, 188, 190, 190, 191, 192, 192, 194, 195, 196, 196, 197, 198, 198, 199, 200, 200, 201, 202, 203, 204, 204, 205, 206, 207, 208, 208, 210, 211, 212, 213, 213, 214, 215, 215, 216, 217, 217, 218, 219, 219, 220, 221, 221, 222, 223, 223, 224, 225, 225, 226, 227, 227, 228, 229, 229, 231, 231, 233, 233, 234, 235, 236, 237, 239, 240, 240, 241, 242, 242, 243, 244, 244, 246, 246, 247, 248, 248, 249, 250, 250, 251, 252, 252, 253, 254, 255, 256, 257, 258, 259, 260, 260, 261, 262, 262, 263, 264, 264, 265, 266, 266, 268, 268, 270, 271, 271, 272, 273, 273, 275, 275, 276, 277, 278, 279, 279, 280, 281, 281, 282, 283, 283, 284, 285, 285, 286, 287, 287, 288, 289, 289, 290, 291, 291, 292, 293, 295, 295, 296, 297, 298, 300, 300, 302, 302, 303, 304, 304, 305, 306, 306, 307, 308, 308, 310, 310, 311, 312, 312, 313, 314, 314, 315, 316, 316, 317, 318, 318, 320, 320, 321, 322, 322, 323, 324, 324, 325, 326, 326, 327, 328, 328, 330, 331, 331, 332, 333, 333, 334, 335, 336, 337, 338, 339, 339, 340, 341, 341, 342, 343, 343, 344, 345, 345, 346, 347, 348, 349, 349, 350, 351, 352, 353, 353, 355, 355, 357, 357, 358, 359, 360, 361, 362, 362, 363, 364, 366, 366, 367, 368, 368, 369, 370, 370, 371, 372, 372, 373, 374, 375, 376, 376, 377, 378, 378, 379, 380, 380, 381, 382, 382, 383, 384, 384, 385, 386, 386, 387, 388, 388, 390, 391, 391, 392, 393, 394, 395, 395, 396, 397, 398, 399, 401, 401, 402, 403, 403, 405, 405, 406, 407, 407, 408, 409, 409, 410, 411, 411, 412, 413, 413, 414, 415, 415, 416, 417, 417, 418, 419, 421, 422, 425, 426, 427, 428, 429, 430, 431, 432, 433, 434, 435, 436, 437, 438, 439, 440, 441, 442, 443, 445, 446, 447];
Edge_End = [2, 30, 3, 4, 32, 5, 6, 34, 7, 9, 10, 38, 11, 12, 40, 13, 14, 42, 16, 44, 17, 18, 19, 20, 48, 21, 22, 50, 23, 24, 52, 25, 26, 54, 27, 28, 56, 29, 58, 31, 32, 61, 34, 63, 35, 36, 38, 67, 39, 40, 69, 41, 42, 71, 43, 44, 73, 45, 75, 47, 48, 77, 49, 50, 79, 51, 52, 81, 53, 54, 83, 55, 56, 85, 57, 58, 87, 59, 89, 61, 90, 62, 63, 92, 64, 65, 66, 67, 68, 98, 70, 71, 100, 72, 73, 102, 75, 104, 76, 77, 106, 78, 108, 80, 82, 83, 112, 84, 114, 86, 87, 116, 88, 89, 91, 92, 121, 93, 94, 123, 96, 125, 97, 98, 99, 100, 102, 131, 103, 104, 133, 105, 106, 135, 107, 108, 137, 109, 110, 139, 111, 141, 113, 114, 143, 115, 116, 145, 117, 118, 147, 119, 149, 121, 150, 122, 123, 152, 124, 125, 154, 126, 127, 156, 128, 129, 158, 131, 132, 162, 135, 164, 136, 137, 166, 139, 168, 140, 141, 170, 143, 172, 144, 145, 146, 147, 176, 148, 149, 178, 151, 152, 181, 153, 154, 183, 155, 156, 185, 157, 158, 187, 159, 160, 189, 161, 162, 191, 163, 164, 193, 165, 166, 195, 167, 168, 197, 169, 171, 172, 173, 174, 203, 175, 176, 205, 177, 178, 207, 179, 209, 181, 182, 183, 212, 184, 185, 186, 187, 216, 188, 189, 218, 191, 220, 192, 193, 222, 224, 196, 197, 226, 198, 199, 228, 200, 201, 230, 202, 232, 204, 205, 234, 206, 236, 208, 209, 238, 211, 241, 213, 214, 243, 215, 216, 245, 217, 218, 247, 219, 220, 249, 221, 222, 251, 223, 224, 253, 225, 226, 255, 227, 228, 257, 229, 230, 259, 232, 261, 234, 263, 235, 236, 237, 238, 269, 241, 270, 242, 243, 272, 244, 245, 274, 247, 276, 248, 249, 278, 250, 251, 280, 252, 253, 282, 254, 284, 256, 286, 258, 259, 260, 261, 290, 262, 263, 292, 264, 265, 294, 266, 267, 296, 269, 298, 271, 272, 301, 273, 274, 303, 276, 305, 277, 278, 279, 280, 309, 281, 282, 311, 283, 284, 313, 285, 286, 315, 287, 288, 317, 289, 290, 319, 291, 292, 321, 293, 323, 296, 325, 297, 298, 299, 301, 330, 303, 332, 304, 305, 334, 306, 307, 336, 308, 309, 338, 311, 340, 312, 313, 342, 314, 315, 344, 316, 317, 346, 318, 319, 348, 321, 350, 322, 323, 352, 324, 325, 354, 326, 327, 356, 328, 329, 358, 331, 332, 361, 333, 334, 363, 335, 365, 337, 338, 339, 340, 369, 341, 342, 371, 343, 344, 373, 345, 346, 375, 347, 348, 349, 350, 379, 351, 352, 353, 354, 383, 356, 385, 358, 387, 359, 389, 390, 362, 363, 392, 364, 394, 367, 396, 368, 369, 398, 370, 371, 400, 372, 373, 402, 374, 375, 376, 377, 406, 378, 379, 408, 380, 381, 410, 382, 383, 412, 384, 385, 414, 386, 387, 416, 388, 389, 418, 391, 392, 420, 393, 422, 395, 396, 424, 397, 398, 399, 428, 402, 430, 403, 404, 432, 406, 434, 407, 408, 436, 409, 410, 438, 411, 412, 440, 413, 414, 442, 415, 416, 444, 417, 418, 446, 419, 448, 422, 423, 426, 427, 428, 429, 430, 431, 432, 433, 434, 435, 436, 437, 438, 439, 440, 441, 442, 443, 444, 446, 447, 448];
L = [7, 8, 9, 12, 15, 1, 5, 17, 9, 12, 10, 6, 17, 19, 7, 16, 15, 19, 18, 10, 18, 11, 2, 4, 10, 6, 5, 12, 14, 16, 7, 9, 10, 19, 11, 8, 9, 1, 18, 13, 18, 2, 8, 14, 12, 11, 15, 11, 3, 15, 7, 11, 15, 15, 5, 11, 9, 18, 19, 1, 9, 10, 14, 3, 14, 1, 12, 7, 5, 2, 15, 4, 18, 15, 7, 10, 9, 1, 4, 14, 4, 4, 12, 16, 12, 2, 18, 17, 16, 13, 11, 4, 6, 11, 16, 17, 1, 1, 5, 19, 14, 12, 10, 14, 18, 7, 3, 11, 18, 1, 7, 18, 12, 3, 18, 12, 7, 10, 4, 3, 4, 2, 16, 3, 10, 7, 5, 6, 1, 18, 4, 1, 18, 14, 3, 11, 2, 2, 4, 13, 2, 1, 13, 15, 13, 4, 1, 14, 13, 16, 9, 8, 5, 18, 1, 12, 6, 2, 2, 1, 3, 14, 4, 1, 4, 17, 3, 14, 5, 13, 9, 19, 7, 3, 5, 2, 14, 5, 17, 19, 11, 18, 17, 4, 7, 1, 17, 18, 17, 1, 13, 8, 7, 9, 9, 5, 16, 7, 1, 2, 15, 13, 8, 12, 4, 10, 5, 14, 13, 12, 1, 13, 5, 9, 10, 5, 1, 12, 14, 1, 14, 19, 17, 14, 6, 15, 1, 18, 3, 14, 2, 6, 16, 12, 8, 17, 9, 14, 7, 6, 14, 18, 15, 7, 7, 17, 1, 10, 7, 13, 14, 6, 8, 1, 5, 1, 1, 5, 15, 8, 7, 14, 1, 15, 14, 4, 4, 6, 10, 14, 5, 12, 2, 11, 4, 1, 7, 11, 9, 12, 16, 10, 10, 19, 1, 8, 5, 12, 4, 7, 5, 15, 18, 16, 17, 2, 4, 15, 16, 3, 5, 3, 3, 11, 1, 2, 3, 6, 9, 14, 11, 11, 5, 17, 5, 12, 5, 8, 5, 7, 1, 4, 3, 11, 9, 1, 8, 4, 1, 7, 6, 17, 4, 13, 15, 16, 15, 15, 15, 18, 5, 10, 8, 16, 17, 15, 1, 2, 13, 5, 8, 9, 11, 1, 11, 1, 13, 1, 8, 11, 6, 15, 18, 19, 8, 7, 13, 5, 7, 11, 15, 4, 11, 12, 3, 17, 18, 9, 16, 4, 14, 8, 13, 1, 14, 17, 6, 13, 15, 5, 8, 3, 16, 17, 18, 14, 11, 8, 4, 5, 3, 6, 1, 2, 16, 19, 13, 11, 9, 4, 14, 2, 8, 17, 15, 13, 16, 12, 3, 2, 5, 10, 8, 14, 5, 15, 12, 2, 14, 10, 10, 13, 9, 2, 4, 7, 9, 3, 7, 14, 11, 4, 4, 2, 16, 10, 4, 18, 1, 4, 19, 1, 12, 14, 13, 9, 9, 14, 1, 11, 11, 9, 3, 15, 14, 18, 17, 1, 14, 7, 9, 16, 12, 11, 7, 6, 18, 4, 12, 11, 1, 18, 13, 3, 12, 3, 16, 14, 17, 8, 18, 18, 19, 10, 13, 2, 3, 2, 7, 6, 1, 2, 13, 6, 10, 9, 18, 13, 14, 15, 2, 18, 11, 16, 6, 15, 15, 12, 17, 4, 8, 10, 16, 11, 6, 9, 9, 3, 18, 9, 3, 8, 8, 1, 12, 14, 1, 18, 16, 2, 4, 15, 13, 7, 7, 8, 1, 12, 16, 5, 7, 1, 1, 7, 1, 11, 10, 5, 1, 12, 8, 15, 12, 5, 4];
T = [5, 3, 9, 6, 16, 4, 6, 9, 14, 15, 18, 1, 17, 21, 1, 12, 16, 20, 8, 8, 20, 10, 13, 1, 18, 1, 1, 1, 14, 20, 10, 9, 15, 10, 14, 14, 11, 4, 9, 11, 21, 1, 15, 7, 8, 14, 10, 7, 4, 10, 1, 11, 14, 26, 1, 16, 5, 15, 21, 3, 16, 9, 14, 4, 14, 8, 8, 1, 1, 13, 14, 1, 13, 7, 13, 17, 7, 1, 1, 20, 5, 9, 11, 16, 10, 7, 25, 15, 15, 11, 11, 4, 1, 12, 9, 16, 4, 1, 1, 19, 17, 7, 8, 11, 20, 6, 1, 9, 12, 1, 9, 20, 16, 12, 21, 4, 4, 1, 1, 1, 13, 4, 10, 1, 7, 12, 10, 8, 4, 13, 1, 1, 16, 10, 14, 12, 7, 1, 1, 11, 7, 10, 7, 11, 12, 5, 6, 5, 16, 22, 7, 9, 7, 18, 1, 17, 5, 1, 1, 1, 1, 13, 5, 7, 11, 20, 1, 9, 8, 20, 9, 27, 6, 3, 11, 4, 9, 7, 18, 22, 12, 14, 18, 11, 11, 2, 18, 15, 15, 7, 9, 16, 14, 7, 8, 10, 27, 11, 1, 6, 15, 14, 7, 12, 1, 1, 8, 9, 18, 13, 1, 13, 3, 1, 13, 4, 6, 12, 13, 2, 14, 16, 10, 13, 1, 15, 2, 21, 1, 12, 1, 7, 14, 8, 9, 18, 18, 16, 1, 12, 19, 25, 17, 11, 5, 17, 7, 15, 1, 13, 15, 10, 13, 1, 3, 1, 5, 16, 28, 1, 12, 4, 3, 21, 18, 2, 7, 12, 13, 7, 10, 9, 1, 13, 9, 6, 13, 6, 13, 14, 13, 12, 5, 8, 1, 6, 5, 12, 7, 6, 1, 13, 20, 16, 17, 1, 2, 18, 20, 1, 1, 8, 1, 10, 1, 4, 3, 14, 1, 14, 8, 12, 9, 7, 7, 6, 12, 12, 10, 4, 1, 6, 1, 8, 8, 1, 14, 1, 1, 12, 8, 10, 1, 5, 16, 19, 16, 11, 11, 23, 7, 13, 12, 14, 16, 11, 1, 5, 19, 3, 4, 16, 11, 1, 3, 1, 21, 1, 5, 4, 18, 19, 21, 14, 8, 3, 8, 4, 12, 4, 21, 8, 1, 16, 5, 16, 18, 4, 9, 4, 12, 11, 8, 1, 6, 17, 5, 12, 16, 5, 13, 1, 9, 20, 19, 13, 13, 11, 1, 10, 3, 9, 6, 1, 13, 17, 9, 8, 16, 8, 6, 1, 5, 16, 7, 13, 25, 17, 1, 1, 4, 7, 2, 17, 1, 19, 9, 1, 14, 13, 12, 21, 11, 3, 4, 12, 9, 12, 1, 12, 11, 5, 8, 1, 22, 10, 1, 21, 5, 1, 14, 11, 11, 16, 8, 5, 11, 19, 1, 6, 5, 3, 3, 24, 13, 18, 19, 15, 15, 9, 8, 21, 8, 17, 10, 17, 20, 1, 7, 9, 1, 21, 11, 3, 13, 4, 19, 11, 17, 9, 21, 20, 22, 1, 9, 1, 10, 9, 1, 1, 1, 1, 8, 4, 16, 10, 12, 8, 11, 14, 2, 20, 17, 8, 5, 19, 20, 11, 14, 10, 7, 10, 15, 12, 4, 14, 7, 1, 12, 12, 5, 13, 12, 1, 10, 11, 3, 14, 13, 1, 1, 16, 18, 13, 5, 7, 5, 14, 10, 4, 11, 3, 10, 7, 1, 3, 9, 1, 1, 15, 7, 21, 5, 9, 1];
Lower_Bound = [0, 5, 14, 20, 24, 30, 44, 124, 109, 127, 115, 136, 143, 159, 146, 154, 174, 184, 197, 198, 199, 200, 214, 234, 240, 255, 255, 269, 273, 3, 14, 30, 42, 33, 41, 55, 99, 108, 104, 114, 122, 123, 122, 138, 153, 178, 175, 191, 204, 200, 208, 216, 217, 230, 231, 244, 255, 272, 273, 35, 15, 24, 35, 45, 52, 77, 92, 83, 103, 92, 96, 108, 117, 142, 146, 147, 166, 173, 218, 229, 209, 229, 231, 240, 238, 239, 248, 264, 274, 40, 44, 40, 41, 42, 48, 61, 71, 72, 79, 91, 134, 124, 128, 141, 142, 158, 168, 180, 181, 182, 189, 230, 237, 248, 253, 259, 275, 297, 306, 66, 48, 47, 42, 43, 44, 57, 62, 73, 93, 139, 130, 122, 129, 160, 152, 158, 161, 175, 179, 186, 199, 237, 249, 267, 258, 269, 271, 286, 301, 67, 64, 48, 52, 44, 71, 64, 70, 74, 81, 93, 94, 102, 120, 133, 146, 149, 162, 166, 178, 208, 221, 223, 237, 253, 259, 260, 262, 283, 273, 85, 78, 70, 62, 80, 72, 85, 84, 103, 82, 114, 103, 120, 121, 144, 147, 160, 168, 181, 182, 183, 188, 216, 247, 240, 244, 264, 263, 265, 272, 125, 112, 79, 89, 98, 106, 97, 110, 116, 130, 119, 124, 132, 138, 143, 150, 156, 169, 184, 200, 199, 220, 217, 236, 237, 245, 246, 256, 257, 319, 108, 105, 104, 90, 102, 111, 130, 123, 135, 130, 126, 125, 126, 134, 135, 151, 152, 185, 197, 202, 199, 200, 216, 235, 246, 257, 264, 277, 301, 315, 122, 113, 112, 112, 109, 152, 136, 137, 140, 141, 132, 137, 134, 153, 149, 156, 153, 157, 169, 186, 194, 206, 211, 215, 269, 253, 262, 274, 285, 293, 119, 118, 133, 116, 128, 144, 157, 158, 161, 142, 168, 155, 156, 166, 170, 164, 177, 161, 169, 185, 184, 190, 195, 211, 224, 249, 250, 251, 258, 260, 125, 126, 138, 139, 133, 145, 166, 177, 174, 178, 172, 160, 159, 170, 171, 172, 186, 187, 177, 182, 183, 194, 202, 218, 226, 252, 254, 252, 253, 251, 192, 135, 159, 152, 171, 166, 214, 216, 208, 187, 182, 172, 179, 178, 183, 182, 203, 213, 200, 196, 207, 224, 243, 223, 224, 233, 237, 246, 247, 248, 189, 181, 177, 187, 186, 194, 205, 207, 216, 233, 199, 191, 186, 206, 217, 216, 206, 216, 219, 223, 216, 217, 229, 234, 225, 226, 236, 239, 248, 249, 197, 215, 199, 217, 208, 254, 241, 236, 229, 224, 210, 220, 220, 226, 223, 233, 228, 229, 230, 230, 229, 230, 245, 252, 237, 257, 252, 251, 250];
Upper_Bound = [1, 6, 15, 21, 25, 31, 45, 125, 110, 128, 116, 137, 144, 160, 147, 155, 175, 185, 198, 199, 200, 201, 215, 235, 241, 256, 256, 270, 274, 4, 15, 31, 43, 34, 42, 56, 100, 109, 105, 115, 123, 124, 123, 139, 154, 179, 176, 192, 205, 201, 209, 217, 218, 231, 232, 245, 256, 273, 274, 36, 16, 25, 36, 46, 53, 78, 93, 84, 104, 93, 97, 109, 118, 143, 147, 148, 167, 174, 219, 230, 210, 230, 232, 241, 239, 240, 249, 265, 275, 41, 45, 41, 42, 43, 49, 62, 72, 73, 80, 92, 135, 125, 129, 142, 143, 159, 169, 181, 182, 183, 190, 231, 238, 249, 254, 260, 276, 298, 307, 67, 49, 48, 43, 44, 45, 58, 63, 74, 94, 140, 131, 123, 130, 161, 153, 159, 162, 176, 180, 187, 200, 238, 250, 268, 259, 270, 272, 287, 302, 68, 65, 49, 53, 45, 72, 65, 71, 75, 82, 94, 95, 103, 121, 134, 147, 150, 163, 167, 179, 209, 222, 224, 238, 254, 260, 261, 263, 284, 274, 86, 79, 71, 63, 81, 73, 86, 85, 104, 83, 115, 104, 121, 122, 145, 148, 161, 169, 182, 183, 184, 189, 217, 248, 241, 245, 265, 264, 266, 273, 126, 113, 80, 90, 99, 107, 98, 111, 117, 131, 120, 125, 133, 139, 144, 151, 157, 170, 185, 201, 200, 221, 218, 237, 238, 246, 247, 257, 258, 320, 109, 106, 105, 91, 103, 112, 131, 124, 136, 131, 127, 126, 127, 135, 136, 152, 153, 186, 198, 203, 200, 201, 217, 236, 247, 258, 265, 278, 302, 316, 123, 114, 113, 113, 110, 153, 137, 138, 141, 142, 133, 138, 135, 154, 150, 157, 154, 158, 170, 187, 195, 207, 212, 216, 270, 254, 263, 275, 286, 294, 120, 119, 134, 117, 129, 145, 158, 159, 162, 143, 169, 156, 157, 167, 171, 165, 178, 162, 170, 186, 185, 191, 196, 212, 225, 250, 251, 252, 259, 261, 126, 127, 139, 140, 134, 146, 167, 178, 175, 179, 173, 161, 160, 171, 172, 173, 187, 188, 178, 183, 184, 195, 203, 219, 227, 253, 255, 253, 254, 252, 193, 136, 160, 153, 172, 167, 215, 217, 209, 188, 183, 173, 180, 179, 184, 183, 204, 214, 201, 197, 208, 225, 244, 224, 225, 234, 238, 247, 248, 249, 190, 182, 178, 188, 187, 195, 206, 208, 217, 234, 200, 192, 187, 207, 218, 217, 207, 217, 220, 224, 217, 218, 230, 235, 226, 227, 237, 240, 249, 250, 198, 216, 200, 218, 209, 255, 242, 237, 230, 225, 211, 221, 221, 227, 224, 234, 229, 230, 231, 231, 230, 231, 246, 253, 238, 258, 253, 252, 251];
Start = 1;
End = 448;
Time = 252;
